
Gurobi 6.5.2 (linux64) logging started Tue Sep 20 21:16:19 2016


Gurobi 6.5.2 (linux64) logging started Tue Sep 20 21:16:19 2016

Optimize a model with 41 rows, 115 columns and 237 nonzeros
Coefficient statistics:
  Matrix range    [1e+00, 2e+00]
  Objective range [3e+00, 1e+02]
  Bounds range    [1e+00, 1e+00]
  RHS range       [1e+00, 1e+00]
Presolve removed 19 rows and 16 columns
Presolve time: 0.00s
Presolved: 22 rows, 99 columns, 199 nonzeros
Variable types: 0 continuous, 99 integer (99 binary)

Root relaxation: objective 6.905000e+02, 34 iterations, 0.00 seconds

    Nodes    |    Current Node    |     Objective Bounds      |     Work
 Expl Unexpl |  Obj  Depth IntInf | Incumbent    BestBd   Gap | It/Node Time

     0     0  690.50000    0    6          -  690.50000      -     -    0s
H    0     0                     798.0000000  690.50000  13.5%     -    0s
H    0     0                     752.0000000  690.50000  8.18%     -    0s
H    0     0                     722.0000000  690.50000  4.36%     -    0s
     0     0  692.66667    0    5  722.00000  692.66667  4.06%     -    0s
     0     0  700.00000    0   14  722.00000  700.00000  3.05%     -    0s
     0     0  700.00000    0   14  722.00000  700.00000  3.05%     -    0s
     0     0  700.00000    0    8  722.00000  700.00000  3.05%     -    0s
     0     0  700.00000    0   14  722.00000  700.00000  3.05%     -    0s
H    0     0                     714.0000000  700.00000  1.96%     -    0s
     0     0  701.55556    0   15  714.00000  701.55556  1.74%     -    0s
H    0     0                     702.0000000  701.55556  0.06%     -    0s

Cutting planes:
  Gomory: 3
  Cover: 1
  Lazy constraints: 1

Explored 0 nodes (102 simplex iterations) in 0.01 seconds
Thread count was 8 (of 8 available processors)

Optimal solution found (tolerance 1.00e-04)
Best objective 7.020000000000e+02, best bound 7.020000000000e+02, gap 0.0%
